62      4       
14      11      11      17      
0       0       0       0       0       3       2       3       4       
2       1       0       0       0       3       5       7       17      
1       0       0       0       5       1       24      
4       0       8       0       0       1       18      
9       0       0       4       0       3       6       12      14      
2       10      0       0       0       3       8       10      23      
8       0       3       0       0       3       11      37      44      
1       0       0       0       6       3       9       13      33      
5       1       0       0       0       3       29      34      57      
4       0       0       0       1       2       16      45      
3       9       0       0       0       2       15      50      
2       1       0       0       0       3       19      25      38      
6       0       0       0       9       3       21      28      32      
5       0       0       0       8       2       20      22      
10      2       0       0       0       2       30      39      
10      9       0       0       0       1       30      
1       0       0       0       5       1       26      
4       0       0       0       5       3       20      39      40      
3       0       3       0       0       2       29      31      
5       0       0       5       0       2       41      44      
3       0       5       0       0       2       30      61      
1       0       0       3       0       3       34      52      58      
1       0       9       0       0       3       35      36      43      
3       0       0       3       0       2       27      50      
5       0       0       0       4       2       32      41      
6       0       0       9       0       1       56      
10      0       6       0       0       2       35      49      
9       0       0       0       1       1       44      
6       0       0       5       0       1       46      
1       0       0       6       0       3       41      42      51      
5       0       0       0       10      3       34      52      56      
6       4       0       0       0       2       48      53      
3       7       0       0       0       1       53      
8       6       0       0       0       2       36      60      
4       0       0       0       9       3       46      47      48      
2       8       0       0       0       1       61      
1       1       0       0       0       1       45      
3       0       0       0       9       1       45      
3       6       0       0       0       2       51      56      
8       0       0       0       6       2       47      55      
3       0       0       0       3       1       49      
1       0       0       0       7       1       43      
4       0       0       3       0       2       48      49      
6       7       0       0       0       3       47      50      52      
9       4       0       0       0       2       46      55      
8       0       5       0       0       1       61      
8       5       0       0       0       1       59      
8       6       0       0       0       1       54      
3       0       0       0       1       1       58      
1       0       0       0       9       3       51      54      57      
6       0       0       9       0       1       53      
5       1       0       0       0       2       54      57      
5       0       0       0       6       1       60      
3       2       0       0       0       1       55      
2       0       0       9       0       1       60      
9       0       0       9       0       1       58      
2       0       0       0       9       1       59      
3       0       2       0       0       1       59      
6       0       0       2       0       1       62      
5       0       0       10      0       1       62      
5       0       0       0       6       1       62      
0       0       0       0       0       0       